%chk=6.chk
# irc=(calcfc,recorrect=never,maxpoints=40,step=20,phase=1,2)
apfd/6-311+g(2d,p) int=(ultrafine,acc2e=12)

cis Hydroxycarbene --> CO + H2

0 1
 C                  0.15231500    0.66430200    0.00000000
 H                 -1.17307000    0.94876300    0.00000000
 O                  0.15231500   -0.60360200    0.00000000
 H                 -0.95934400   -0.10575800    0.00000000

