%chk=C:\Users\Administrator\Desktop\benchmark_xxx\HCN-HNC\IRC_31.chk
# irc=(calcfc,maxpoints=200,recalc=10,stepsize=15,lqa) b3lyp/6-311+g(d,p)
geom=connectivity

Title Card Required

0 1
 C                  0.09523700    0.66006400    0.00000000
 H                 -1.06094900   -0.45447800    0.00000000
 N                 -0.00525600   -0.53293600    0.00000000

 1 3 2.0
 2 3 1.0
 3

