%chk=C:\Users\Administrator\Desktop\benchmark_xxx\HCN-HNC\IRC_38.chk
# irc=(calcfc,maxpoints=200,recalc=10,stepsize=15,lqa) b3lyp/6-311+g(d,p)
geom=connectivity

Title Card Required

0 1
 C                  0.13600700    0.66802300    0.00000000
 H                 -0.94448900   -0.98136100    0.00000000
 N                 -0.04857600   -0.50183500    0.00000000

 1 3 3.0
 2 3 1.0
 3

