%chk=C:\Users\Administrator\Desktop\benchmark_xxx\HCN-HNC\IRC_1.chk
# irc=(calcfc,maxpoints=200,recalc=10,stepsize=15,lqa) b3lyp/6-311+g(d,p)
geom=connectivity

Title Card Required

0 1
 C                 -0.13928700    0.53812100    0.00000000
 H                 -0.45588900    1.55965200    0.00000000
 N                  0.15217400   -0.57339600    0.00000000

 1 2 1.0 3 3.0
 2
 3

