%chk=C:\Users\Administrator\Desktop\IRC.chk
# irc=(CalcFC,Recalc=10,maxpoints=200,stepsize=15, LQA) b3lyp/6-311+g(d,p) geom=connectivity

Title Card Required

0 1
 C                  0.08089600    0.61887500    0.00000000
 H                 -1.05164500    0.24367000    0.00000000
 N                  0.08089600   -0.56527400    0.00000000

 1 3 3.0
 2
 3

